%%% static parameters %%%
timespan = 1;
Clients_N = [4000];
Demand_W = [15];
Lt0 = [4];
Lt1 = [4];
SS_ = [0.85];
DS_D = [20];
K = [200];
MA = [500];
HC = [0.05];
%%% dynamic parameters %%%
lost_ratio_sales_ret_th = 0.0009695829910772122;
lost_ratio_sales_ret_w = 26;
lost_ratio_sales_dis_th = 0.00047156121594533877;
lost_ratio_sales_dis_w = 26;
lost_ratio_sales_fac_th = 0.00043822068608704093;
lost_ratio_sales_fac_w = 60;
stock_customer_MA_mean_relative_th = 0.2578012671518698;
stock_customer_MA_mean_relative_w = 59;
stock_distributor_MA_mean_relative_th = 0.6654605779604233;
stock_distributor_MA_mean_relative_w = 80;
stock_retailer_MA_mean_relative_th = 0.9282828908691703;
stock_retailer_MA_mean_relative_w = 92;
stock_factory_MA_mean_relative_th = 0.4076663718831878;
stock_factory_MA_mean_relative_w = 34;
